c   nvars nclauses
p cnf 4 4
-31 0
31 11 0
6 11 0
-31 -6 -11 0
3 11 0
6 11 0
-3 -6 -11 0
11 16 0
2 16 0
-11 -2 -16 0
11 19 0
7 19 0
-11 -7 -19 0
16 23 0
19 23 0
-16 -23 -19 0
24 25 -40 0
24 -25 40 0
-24 25 40 0
-24 -25 -40 0
40 0
